2086 2085
2087 2086
2088 2087
2185 2085
2189 2088
2189 2190
2190 2191
2283 2282
2284 2283
2284 2185
2191 2291
2292 2291
2293 2292
2307 2308
2308 2309
2309 2310
2311 2310
2311 2312
2312 2313
2313 2314
2314 2315
2316 2315
2317 2316
2317 2318
2319 2318
2319 2320
2320 2321
2322 2321
2323 2322
2323 2324
2325 2324
2325 2326
2326 2327
2327 2328
2328 2329
2329 2330
2330 2331
2331 2332
2332 2333
2333 2334
2334 2335
2335 2336
2336 2337
2337 2338
2338 2339
2339 2340
2340 2341
2341 2342
2342 2343
2343 2344
2344 2345
2345 2346
2346 2347
2347 2348
2348 2349
2349 2350
2350 2351
2351 2352
2352 2353
2353 2354
2354 2355
2355 2356
2356 2357
2357 2358
2358 2359
2359 2360
2360 2361
2361 2362
2362 2363
2363 2364
2364 2365
2365 2366
2366 2367
2367 2368
2368 2369
2369 2370
2370 2371
2371 2372
2372 2373
2373 2374
2374 2375
2375 2376
2376 2377
2377 2378
2378 2379
2379 2380
2380 2381
2381 2382
2282 2382
2394 2395
2395 2396
2404 2403
2405 2404
2406 2405
2406 2307
2396 2496
2501 2502
2502 2503
2403 2503
2597 2496
2598 2597
3370 3270
3469 3370
